general: - !auto generated by BSM on 2020-06-07 07:39:16.076733
SYSTEM = testing - stuff
ISTART = 0
ICHARG = 2
ENCUT = 750
ALGO = Fast
EDIFF = 1E-6
ISMEAR = 0
SIGMA = 0.05
LREAL = Auto
ISPIN = 2
MAGMOM = 5*0.0 5*1.0 10*0.0 
LORBIT = 11

dynamics:
ISIF = 2
NSW = 0
IBRION = 2
EDIFFG = 0.025

GGA+U
LDAU      = .TRUE.
LDAUTYPE  = 2
LDAUL = -1 2 -1 
LDAUU = 0.00 3.32 0.00 
LDAUJ = 0.00 0.0 0.00 
LDAUPRINT = 2
LMAXMIX   = 4