Li5 Co5 O10
1.0
5.744751 0.000000 -0.084243
-0.000000 2.842899 0.000000
0.000000 0.000000 24.249497
Li Co O
5 5 10
direct
0.000000 0.000000 0.333333 Li
0.000000 0.000000 0.666667 Li
0.250000 0.500000 0.416667 Li
0.750000 0.500000 0.583333 Li
0.500000 0.000000 0.500000 Li
0.250000 0.500000 0.583333 Co
0.750000 0.500000 0.416667 Co
0.500000 0.000000 0.333333 Co
0.500000 0.000000 0.666667 Co
0.000000 0.000000 0.500000 Co
0.020826 0.000000 0.579862 O
0.979174 0.000000 0.420138 O
0.229174 0.500000 0.503471 O
0.770826 0.500000 0.496529 O
0.270826 0.500000 0.329862 O
0.729174 0.500000 0.670138 O
0.270826 0.500000 0.663196 O
0.729174 0.500000 0.336804 O
0.479174 0.000000 0.586804 O
0.520826 0.000000 0.413196 O
