Li5 Co5 O10
1.0
5.740774 0.000000 -0.229728
-0.000000 2.842899 0.000000
0.000000 0.000000 52.576975
Li Co O
5 5 10
direct
0.230769 0.000000 0.461538 Li
0.769231 0.000000 0.538462 Li
0.461538 0.500000 0.423077 Li
0.538462 0.500000 0.576923 Li
0.000000 0.500000 0.500000 Li
0.038462 0.500000 0.576923 Co
0.961538 0.500000 0.423077 Co
0.269231 0.000000 0.538462 Co
0.730769 0.000000 0.461538 Co
0.500000 0.500000 0.500000 Co
0.040858 0.500000 0.540064 O
0.959142 0.500000 0.459936 O
0.189911 0.000000 0.421475 O
0.810089 0.000000 0.578525 O
0.266835 0.000000 0.575321 O
0.733165 0.000000 0.424679 O
0.271627 0.000000 0.501602 O
0.728373 0.000000 0.498398 O
0.497604 0.500000 0.536860 O
0.502396 0.500000 0.463140 O
