Li27 Co27 O54
1.0
8.528697 0.000000 0.000000
-4.264347 7.386069 0.000000
0.000000 0.000000 14.145615
Li Co O
27 27 54
Selective dynamics
direct
0.000000 0.000000 0.000000 T T T Li
1.000000 0.333333 0.000000 T T T Li
1.000000 0.666667 0.000000 T T T Li
0.333333 0.000000 0.000000 T T T Li
0.333333 0.333333 0.000000 T T T Li
0.333333 0.666667 0.000000 T T T Li
0.666667 0.000000 0.000000 T T T Li
0.666667 0.333333 0.000000 T T T Li
0.666667 0.666667 0.000000 T T T Li
0.222222 0.111111 0.333333 T T T Li
0.222222 0.444444 0.333333 T T T Li
0.222222 0.777778 0.333333 T T T Li
0.555556 0.111111 0.333333 T T T Li
0.555556 0.444444 0.333333 T T T Li
0.555556 0.777778 0.333333 T T T Li
0.888889 0.111111 0.333333 T T T Li
0.888889 0.444444 0.333333 T T T Li
0.888889 0.777778 0.333333 T T T Li
0.111111 0.222222 0.666667 T T T Li
0.111111 0.555556 0.666667 T T T Li
0.111111 0.888889 0.666667 T T T Li
0.444444 0.222222 0.666667 T T T Li
0.444444 0.555556 0.666667 T T T Li
0.444444 0.888889 0.666667 T T T Li
0.777778 0.222222 0.666667 T T T Li
0.777778 0.555556 0.666667 T T T Li
0.777778 0.888889 0.666667 T T T Li
0.000000 0.000000 0.500000 T T T Co
1.000000 0.333333 0.500000 T T T Co
1.000000 0.666667 0.500000 T T T Co
0.333333 0.000000 0.500000 T T T Co
0.333333 0.333333 0.500000 T T T Co
0.333333 0.666667 0.500000 T T T Co
0.666667 0.000000 0.500000 T T T Co
0.666667 0.333333 0.500000 T T T Co
0.666667 0.666667 0.500000 T T T Co
0.222222 0.111111 0.833333 T T T Co
0.222222 0.444444 0.833333 T T T Co
0.222222 0.777778 0.833333 T T T Co
0.555556 0.111111 0.833333 T T T Co
0.555556 0.444444 0.833333 T T T Co
0.555556 0.777778 0.833333 T T T Co
0.888889 0.111111 0.833333 T T T Co
0.888889 0.444444 0.833333 T T T Co
0.888889 0.777778 0.833333 T T T Co
0.111111 0.222222 0.166667 T T T Co
0.111111 0.555556 0.166667 T T T Co
0.111111 0.888889 0.166667 T T T Co
0.444444 0.222222 0.166667 T T T Co
0.444444 0.555556 0.166667 T T T Co
0.444444 0.888889 0.166667 T T T Co
0.777778 0.222222 0.166667 T T T Co
0.777778 0.555556 0.166667 T T T Co
0.777778 0.888889 0.166667 T T T Co
0.000000 0.000000 0.239587 T T T O
1.000000 0.333333 0.239587 T T T O
1.000000 0.666667 0.239587 T T T O
0.333333 0.000000 0.239587 T T T O
0.333333 0.333333 0.239587 T T T O
0.333333 0.666667 0.239587 T T T O
0.666667 0.000000 0.239587 T T T O
0.666667 0.333333 0.239587 T T T O
0.666667 0.666667 0.239587 T T T O
0.000000 0.000000 0.760413 T T T O
1.000000 0.333333 0.760413 T T T O
1.000000 0.666667 0.760413 T T T O
0.333333 0.000000 0.760413 T T T O
0.333333 0.333333 0.760413 T T T O
0.333333 0.666667 0.760413 T T T O
0.666667 0.000000 0.760413 T T T O
0.666667 0.333333 0.760413 T T T O
0.666667 0.666667 0.760413 T T T O
0.222222 0.111111 0.572920 T T T O
0.222222 0.444444 0.572920 T T T O
0.222222 0.777778 0.572920 T T T O
0.555556 0.111111 0.572920 T T T O
0.555556 0.444444 0.572920 T T T O
0.555556 0.777778 0.572920 T T T O
0.888889 0.111111 0.572920 T T T O
0.888889 0.444444 0.572920 T T T O
0.888889 0.777778 0.572920 T T T O
0.222222 0.111111 0.093746 T T T O
0.222222 0.444444 0.093746 T T T O
0.222222 0.777778 0.093746 T T T O
0.555556 0.111111 0.093746 T T T O
0.555556 0.444444 0.093746 T T T O
0.555556 0.777778 0.093746 T T T O
0.888889 0.111111 0.093746 T T T O
0.888889 0.444444 0.093746 T T T O
0.888889 0.777778 0.093746 T T T O
0.111111 0.222222 0.906254 T T T O
0.111111 0.555556 0.906254 T T T O
0.111111 0.888889 0.906254 T T T O
0.444444 0.222222 0.906254 T T T O
0.444444 0.555556 0.906254 T T T O
0.444444 0.888889 0.906254 T T T O
0.777778 0.222222 0.906254 T T T O
0.777778 0.555556 0.906254 T T T O
0.777778 0.888889 0.906254 T T T O
0.111111 0.222222 0.427080 T T T O
0.111111 0.555556 0.427080 T T T O
0.111111 0.888889 0.427080 T T T O
0.444444 0.222222 0.427080 T T T O
0.444444 0.555556 0.427080 T T T O
0.444444 0.888889 0.427080 T T T O
0.777778 0.222222 0.427080 T T T O
0.777778 0.555556 0.427080 T T T O
0.777778 0.888889 0.427080 T T T O
