Li252 Co252 O504
1.0
34.468506 0.000000 -0.505458
0.000000 17.057394 0.000000
0.000000 0.000000 61.166331
Li Co O
252 252 504
direct
0.042253 0.083333 0.033191 Li
0.042253 0.250000 0.033191 Li
0.042253 0.416667 0.033191 Li
0.042253 0.583333 0.033191 Li
0.042253 0.750000 0.033191 Li
0.042253 0.916667 0.033191 Li
0.208919 0.083333 0.033191 Li
0.208919 0.250000 0.033191 Li
0.208919 0.416667 0.033191 Li
0.208919 0.583333 0.033191 Li
0.208919 0.750000 0.033191 Li
0.208919 0.916667 0.033191 Li
0.375586 0.083333 0.033191 Li
0.375586 0.250000 0.033191 Li
0.375586 0.416667 0.033191 Li
0.375586 0.583333 0.033191 Li
0.375586 0.750000 0.033191 Li
0.375586 0.916667 0.033191 Li
0.542253 0.083333 0.033191 Li
0.542253 0.250000 0.033191 Li
0.542253 0.416667 0.033191 Li
0.542253 0.583333 0.033191 Li
0.542253 0.750000 0.033191 Li
0.542253 0.916667 0.033191 Li
0.708919 0.083333 0.033191 Li
0.708919 0.250000 0.033191 Li
0.708919 0.416667 0.033191 Li
0.708919 0.583333 0.033191 Li
0.708919 0.750000 0.033191 Li
0.708919 0.916667 0.033191 Li
0.875586 0.083333 0.033191 Li
0.875586 0.250000 0.033191 Li
0.875586 0.416667 0.033191 Li
0.875586 0.583333 0.033191 Li
0.875586 0.750000 0.033191 Li
0.875586 0.916667 0.033191 Li
0.124414 0.083333 0.231110 Li
0.124414 0.250000 0.231110 Li
0.124414 0.416667 0.231110 Li
0.124414 0.583333 0.231110 Li
0.124414 0.750000 0.231110 Li
0.124414 0.916667 0.231110 Li
0.291081 0.083333 0.231110 Li
0.291081 0.250000 0.231110 Li
0.291081 0.416667 0.231110 Li
0.291081 0.583333 0.231110 Li
0.291081 0.750000 0.231110 Li
0.291081 0.916667 0.231110 Li
0.457747 0.083333 0.231110 Li
0.457747 0.250000 0.231110 Li
0.457747 0.416667 0.231110 Li
0.457747 0.583333 0.231110 Li
0.457747 0.750000 0.231110 Li
0.457747 0.916667 0.231110 Li
0.624414 0.083333 0.231110 Li
0.624414 0.250000 0.231110 Li
0.624414 0.416667 0.231110 Li
0.624414 0.583333 0.231110 Li
0.624414 0.750000 0.231110 Li
0.624414 0.916667 0.231110 Li
0.791081 0.083333 0.231110 Li
0.791081 0.250000 0.231110 Li
0.791081 0.416667 0.231110 Li
0.791081 0.583333 0.231110 Li
0.791081 0.750000 0.231110 Li
0.791081 0.916667 0.231110 Li
0.957747 0.083333 0.231110 Li
0.957747 0.250000 0.231110 Li
0.957747 0.416667 0.231110 Li
0.957747 0.583333 0.231110 Li
0.957747 0.750000 0.231110 Li
0.957747 0.916667 0.231110 Li
0.041695 0.083333 0.165241 Li
0.041695 0.250000 0.165241 Li
0.041695 0.416667 0.165241 Li
0.041695 0.583333 0.165241 Li
0.041695 0.750000 0.165241 Li
0.041695 0.916667 0.165241 Li
0.208362 0.083333 0.165241 Li
0.208362 0.250000 0.165241 Li
0.208362 0.416667 0.165241 Li
0.208362 0.583333 0.165241 Li
0.208362 0.750000 0.165241 Li
0.208362 0.916667 0.165241 Li
0.375028 0.083333 0.165241 Li
0.375028 0.250000 0.165241 Li
0.375028 0.416667 0.165241 Li
0.375028 0.583333 0.165241 Li
0.375028 0.750000 0.165241 Li
0.375028 0.916667 0.165241 Li
0.541695 0.083333 0.165241 Li
0.541695 0.250000 0.165241 Li
0.541695 0.416667 0.165241 Li
0.541695 0.583333 0.165241 Li
0.541695 0.750000 0.165241 Li
0.541695 0.916667 0.165241 Li
0.708362 0.083333 0.165241 Li
0.708362 0.250000 0.165241 Li
0.708362 0.416667 0.165241 Li
0.708362 0.583333 0.165241 Li
0.708362 0.750000 0.165241 Li
0.708362 0.916667 0.165241 Li
0.875028 0.083333 0.165241 Li
0.875028 0.250000 0.165241 Li
0.875028 0.416667 0.165241 Li
0.875028 0.583333 0.165241 Li
0.875028 0.750000 0.165241 Li
0.875028 0.916667 0.165241 Li
0.124972 0.083333 0.099060 Li
0.124972 0.250000 0.099060 Li
0.124972 0.416667 0.099060 Li
0.124972 0.583333 0.099060 Li
0.124972 0.750000 0.099060 Li
0.124972 0.916667 0.099060 Li
0.291638 0.083333 0.099060 Li
0.291638 0.250000 0.099060 Li
0.291638 0.416667 0.099060 Li
0.291638 0.583333 0.099060 Li
0.291638 0.750000 0.099060 Li
0.291638 0.916667 0.099060 Li
0.458305 0.083333 0.099060 Li
0.458305 0.250000 0.099060 Li
0.458305 0.416667 0.099060 Li
0.458305 0.583333 0.099060 Li
0.458305 0.750000 0.099060 Li
0.458305 0.916667 0.099060 Li
0.624972 0.083333 0.099060 Li
0.624972 0.250000 0.099060 Li
0.624972 0.416667 0.099060 Li
0.624972 0.583333 0.099060 Li
0.624972 0.750000 0.099060 Li
0.624972 0.916667 0.099060 Li
0.791638 0.083333 0.099060 Li
0.791638 0.250000 0.099060 Li
0.791638 0.416667 0.099060 Li
0.791638 0.583333 0.099060 Li
0.791638 0.750000 0.099060 Li
0.791638 0.916667 0.099060 Li
0.958305 0.083333 0.099060 Li
0.958305 0.250000 0.099060 Li
0.958305 0.416667 0.099060 Li
0.958305 0.583333 0.099060 Li
0.958305 0.750000 0.099060 Li
0.958305 0.916667 0.099060 Li
0.083446 0.000000 0.066112 Li
0.083446 0.166667 0.066112 Li
0.083446 0.333333 0.066112 Li
0.083446 0.500000 0.066112 Li
0.083446 0.666667 0.066112 Li
0.083446 0.833333 0.066112 Li
0.250112 0.000000 0.066112 Li
0.250112 0.166667 0.066112 Li
0.250112 0.333333 0.066112 Li
0.250112 0.500000 0.066112 Li
0.250112 0.666667 0.066112 Li
0.250112 0.833333 0.066112 Li
0.416779 0.000000 0.066112 Li
0.416779 0.166667 0.066112 Li
0.416779 0.333333 0.066112 Li
0.416779 0.500000 0.066112 Li
0.416779 0.666667 0.066112 Li
0.416779 0.833333 0.066112 Li
0.583446 0.000000 0.066112 Li
0.583446 0.166667 0.066112 Li
0.583446 0.333333 0.066112 Li
0.583446 0.500000 0.066112 Li
0.583446 0.666667 0.066112 Li
0.583446 0.833333 0.066112 Li
0.750112 0.000000 0.066112 Li
0.750112 0.166667 0.066112 Li
0.750112 0.333333 0.066112 Li
0.750112 0.500000 0.066112 Li
0.750112 0.666667 0.066112 Li
0.750112 0.833333 0.066112 Li
0.916779 0.000000 0.066112 Li
0.916779 0.166667 0.066112 Li
0.916779 0.333333 0.066112 Li
0.916779 0.500000 0.066112 Li
0.916779 0.666667 0.066112 Li
0.916779 0.833333 0.066112 Li
0.083221 0.000000 0.198189 Li
0.083221 0.166667 0.198189 Li
0.083221 0.333333 0.198189 Li
0.083221 0.500000 0.198189 Li
0.083221 0.666667 0.198189 Li
0.083221 0.833333 0.198189 Li
0.249888 0.000000 0.198189 Li
0.249888 0.166667 0.198189 Li
0.249888 0.333333 0.198189 Li
0.249888 0.500000 0.198189 Li
0.249888 0.666667 0.198189 Li
0.249888 0.833333 0.198189 Li
0.416554 0.000000 0.198189 Li
0.416554 0.166667 0.198189 Li
0.416554 0.333333 0.198189 Li
0.416554 0.500000 0.198189 Li
0.416554 0.666667 0.198189 Li
0.416554 0.833333 0.198189 Li
0.583221 0.000000 0.198189 Li
0.583221 0.166667 0.198189 Li
0.583221 0.333333 0.198189 Li
0.583221 0.500000 0.198189 Li
0.583221 0.666667 0.198189 Li
0.583221 0.833333 0.198189 Li
0.749888 0.000000 0.198189 Li
0.749888 0.166667 0.198189 Li
0.749888 0.333333 0.198189 Li
0.749888 0.500000 0.198189 Li
0.749888 0.666667 0.198189 Li
0.749888 0.833333 0.198189 Li
0.916554 0.000000 0.198189 Li
0.916554 0.166667 0.198189 Li
0.916554 0.333333 0.198189 Li
0.916554 0.500000 0.198189 Li
0.916554 0.666667 0.198189 Li
0.916554 0.833333 0.198189 Li
0.000000 0.000000 0.132151 Li
0.000000 0.166667 0.132151 Li
0.000000 0.333333 0.132151 Li
0.000000 0.500000 0.132151 Li
0.000000 0.666667 0.132151 Li
0.000000 0.833333 0.132151 Li
0.166667 0.000000 0.132151 Li
0.166667 0.166667 0.132151 Li
0.166667 0.333333 0.132151 Li
0.166667 0.500000 0.132151 Li
0.166667 0.666667 0.132151 Li
0.166667 0.833333 0.132151 Li
0.333333 0.000000 0.132151 Li
0.333333 0.166667 0.132151 Li
0.333333 0.333333 0.132151 Li
0.333333 0.500000 0.132151 Li
0.333333 0.666667 0.132151 Li
0.333333 0.833333 0.132151 Li
0.500000 0.000000 0.132151 Li
0.500000 0.166667 0.132151 Li
0.500000 0.333333 0.132151 Li
0.500000 0.500000 0.132151 Li
0.500000 0.666667 0.132151 Li
0.500000 0.833333 0.132151 Li
0.666667 0.000000 0.132151 Li
0.666667 0.166667 0.132151 Li
0.666667 0.333333 0.132151 Li
0.666667 0.500000 0.132151 Li
0.666667 0.666667 0.132151 Li
0.666667 0.833333 0.132151 Li
0.833333 0.000000 0.132151 Li
0.833333 0.166667 0.132151 Li
0.833333 0.333333 0.132151 Li
0.833333 0.500000 0.132151 Li
0.833333 0.666667 0.132151 Li
0.833333 0.833333 0.132151 Li
0.999849 0.000000 0.066205 Co
0.999849 0.166667 0.066205 Co
0.999849 0.333333 0.066205 Co
0.999849 0.500000 0.066205 Co
0.999849 0.666667 0.066205 Co
0.999849 0.833333 0.066205 Co
0.166516 0.000000 0.066205 Co
0.166516 0.166667 0.066205 Co
0.166516 0.333333 0.066205 Co
0.166516 0.500000 0.066205 Co
0.166516 0.666667 0.066205 Co
0.166516 0.833333 0.066205 Co
0.333182 0.000000 0.066205 Co
0.333182 0.166667 0.066205 Co
0.333182 0.333333 0.066205 Co
0.333182 0.500000 0.066205 Co
0.333182 0.666667 0.066205 Co
0.333182 0.833333 0.066205 Co
0.499849 0.000000 0.066205 Co
0.499849 0.166667 0.066205 Co
0.499849 0.333333 0.066205 Co
0.499849 0.500000 0.066205 Co
0.499849 0.666667 0.066205 Co
0.499849 0.833333 0.066205 Co
0.666516 0.000000 0.066205 Co
0.666516 0.166667 0.066205 Co
0.666516 0.333333 0.066205 Co
0.666516 0.500000 0.066205 Co
0.666516 0.666667 0.066205 Co
0.666516 0.833333 0.066205 Co
0.833182 0.000000 0.066205 Co
0.833182 0.166667 0.066205 Co
0.833182 0.333333 0.066205 Co
0.833182 0.500000 0.066205 Co
0.833182 0.666667 0.066205 Co
0.833182 0.833333 0.066205 Co
0.000151 0.000000 0.198096 Co
0.000151 0.166667 0.198096 Co
0.000151 0.333333 0.198096 Co
0.000151 0.500000 0.198096 Co
0.000151 0.666667 0.198096 Co
0.000151 0.833333 0.198096 Co
0.166818 0.000000 0.198096 Co
0.166818 0.166667 0.198096 Co
0.166818 0.333333 0.198096 Co
0.166818 0.500000 0.198096 Co
0.166818 0.666667 0.198096 Co
0.166818 0.833333 0.198096 Co
0.333484 0.000000 0.198096 Co
0.333484 0.166667 0.198096 Co
0.333484 0.333333 0.198096 Co
0.333484 0.500000 0.198096 Co
0.333484 0.666667 0.198096 Co
0.333484 0.833333 0.198096 Co
0.500151 0.000000 0.198096 Co
0.500151 0.166667 0.198096 Co
0.500151 0.333333 0.198096 Co
0.500151 0.500000 0.198096 Co
0.500151 0.666667 0.198096 Co
0.500151 0.833333 0.198096 Co
0.666818 0.000000 0.198096 Co
0.666818 0.166667 0.198096 Co
0.666818 0.333333 0.198096 Co
0.666818 0.500000 0.198096 Co
0.666818 0.666667 0.198096 Co
0.666818 0.833333 0.198096 Co
0.833484 0.000000 0.198096 Co
0.833484 0.166667 0.198096 Co
0.833484 0.333333 0.198096 Co
0.833484 0.500000 0.198096 Co
0.833484 0.666667 0.198096 Co
0.833484 0.833333 0.198096 Co
0.041701 0.083333 0.099109 Co
0.041701 0.250000 0.099109 Co
0.041701 0.416667 0.099109 Co
0.041701 0.583333 0.099109 Co
0.041701 0.750000 0.099109 Co
0.041701 0.916667 0.099109 Co
0.208368 0.083333 0.099109 Co
0.208368 0.250000 0.099109 Co
0.208368 0.416667 0.099109 Co
0.208368 0.583333 0.099109 Co
0.208368 0.750000 0.099109 Co
0.208368 0.916667 0.099109 Co
0.375035 0.083333 0.099109 Co
0.375035 0.250000 0.099109 Co
0.375035 0.416667 0.099109 Co
0.375035 0.583333 0.099109 Co
0.375035 0.750000 0.099109 Co
0.375035 0.916667 0.099109 Co
0.541701 0.083333 0.099109 Co
0.541701 0.250000 0.099109 Co
0.541701 0.416667 0.099109 Co
0.541701 0.583333 0.099109 Co
0.541701 0.750000 0.099109 Co
0.541701 0.916667 0.099109 Co
0.708368 0.083333 0.099109 Co
0.708368 0.250000 0.099109 Co
0.708368 0.416667 0.099109 Co
0.708368 0.583333 0.099109 Co
0.708368 0.750000 0.099109 Co
0.708368 0.916667 0.099109 Co
0.875035 0.083333 0.099109 Co
0.875035 0.250000 0.099109 Co
0.875035 0.416667 0.099109 Co
0.875035 0.583333 0.099109 Co
0.875035 0.750000 0.099109 Co
0.875035 0.916667 0.099109 Co
0.124965 0.083333 0.165192 Co
0.124965 0.250000 0.165192 Co
0.124965 0.416667 0.165192 Co
0.124965 0.583333 0.165192 Co
0.124965 0.750000 0.165192 Co
0.124965 0.916667 0.165192 Co
0.291632 0.083333 0.165192 Co
0.291632 0.250000 0.165192 Co
0.291632 0.416667 0.165192 Co
0.291632 0.583333 0.165192 Co
0.291632 0.750000 0.165192 Co
0.291632 0.916667 0.165192 Co
0.458299 0.083333 0.165192 Co
0.458299 0.250000 0.165192 Co
0.458299 0.416667 0.165192 Co
0.458299 0.583333 0.165192 Co
0.458299 0.750000 0.165192 Co
0.458299 0.916667 0.165192 Co
0.624965 0.083333 0.165192 Co
0.624965 0.250000 0.165192 Co
0.624965 0.416667 0.165192 Co
0.624965 0.583333 0.165192 Co
0.624965 0.750000 0.165192 Co
0.624965 0.916667 0.165192 Co
0.791632 0.083333 0.165192 Co
0.791632 0.250000 0.165192 Co
0.791632 0.416667 0.165192 Co
0.791632 0.583333 0.165192 Co
0.791632 0.750000 0.165192 Co
0.791632 0.916667 0.165192 Co
0.958299 0.083333 0.165192 Co
0.958299 0.250000 0.165192 Co
0.958299 0.416667 0.165192 Co
0.958299 0.583333 0.165192 Co
0.958299 0.750000 0.165192 Co
0.958299 0.916667 0.165192 Co
0.042592 0.083333 0.231437 Co
0.042592 0.250000 0.231437 Co
0.042592 0.416667 0.231437 Co
0.042592 0.583333 0.231437 Co
0.042592 0.750000 0.231437 Co
0.042592 0.916667 0.231437 Co
0.209258 0.083333 0.231437 Co
0.209258 0.250000 0.231437 Co
0.209258 0.416667 0.231437 Co
0.209258 0.583333 0.231437 Co
0.209258 0.750000 0.231437 Co
0.209258 0.916667 0.231437 Co
0.375925 0.083333 0.231437 Co
0.375925 0.250000 0.231437 Co
0.375925 0.416667 0.231437 Co
0.375925 0.583333 0.231437 Co
0.375925 0.750000 0.231437 Co
0.375925 0.916667 0.231437 Co
0.542592 0.083333 0.231437 Co
0.542592 0.250000 0.231437 Co
0.542592 0.416667 0.231437 Co
0.542592 0.583333 0.231437 Co
0.542592 0.750000 0.231437 Co
0.542592 0.916667 0.231437 Co
0.709258 0.083333 0.231437 Co
0.709258 0.250000 0.231437 Co
0.709258 0.416667 0.231437 Co
0.709258 0.583333 0.231437 Co
0.709258 0.750000 0.231437 Co
0.709258 0.916667 0.231437 Co
0.875925 0.083333 0.231437 Co
0.875925 0.250000 0.231437 Co
0.875925 0.416667 0.231437 Co
0.875925 0.583333 0.231437 Co
0.875925 0.750000 0.231437 Co
0.875925 0.916667 0.231437 Co
0.124075 0.083333 0.032864 Co
0.124075 0.250000 0.032864 Co
0.124075 0.416667 0.032864 Co
0.124075 0.583333 0.032864 Co
0.124075 0.750000 0.032864 Co
0.124075 0.916667 0.032864 Co
0.290742 0.083333 0.032864 Co
0.290742 0.250000 0.032864 Co
0.290742 0.416667 0.032864 Co
0.290742 0.583333 0.032864 Co
0.290742 0.750000 0.032864 Co
0.290742 0.916667 0.032864 Co
0.457408 0.083333 0.032864 Co
0.457408 0.250000 0.032864 Co
0.457408 0.416667 0.032864 Co
0.457408 0.583333 0.032864 Co
0.457408 0.750000 0.032864 Co
0.457408 0.916667 0.032864 Co
0.624075 0.083333 0.032864 Co
0.624075 0.250000 0.032864 Co
0.624075 0.416667 0.032864 Co
0.624075 0.583333 0.032864 Co
0.624075 0.750000 0.032864 Co
0.624075 0.916667 0.032864 Co
0.790742 0.083333 0.032864 Co
0.790742 0.250000 0.032864 Co
0.790742 0.416667 0.032864 Co
0.790742 0.583333 0.032864 Co
0.790742 0.750000 0.032864 Co
0.790742 0.916667 0.032864 Co
0.957408 0.083333 0.032864 Co
0.957408 0.250000 0.032864 Co
0.957408 0.416667 0.032864 Co
0.957408 0.583333 0.032864 Co
0.957408 0.750000 0.032864 Co
0.957408 0.916667 0.032864 Co
0.083333 0.000000 0.132151 Co
0.083333 0.166667 0.132151 Co
0.083333 0.333333 0.132151 Co
0.083333 0.500000 0.132151 Co
0.083333 0.666667 0.132151 Co
0.083333 0.833333 0.132151 Co
0.250000 0.000000 0.132151 Co
0.250000 0.166667 0.132151 Co
0.250000 0.333333 0.132151 Co
0.250000 0.500000 0.132151 Co
0.250000 0.666667 0.132151 Co
0.250000 0.833333 0.132151 Co
0.416667 0.000000 0.132151 Co
0.416667 0.166667 0.132151 Co
0.416667 0.333333 0.132151 Co
0.416667 0.500000 0.132151 Co
0.416667 0.666667 0.132151 Co
0.416667 0.833333 0.132151 Co
0.583333 0.000000 0.132151 Co
0.583333 0.166667 0.132151 Co
0.583333 0.333333 0.132151 Co
0.583333 0.500000 0.132151 Co
0.583333 0.666667 0.132151 Co
0.583333 0.833333 0.132151 Co
0.750000 0.000000 0.132151 Co
0.750000 0.166667 0.132151 Co
0.750000 0.333333 0.132151 Co
0.750000 0.500000 0.132151 Co
0.750000 0.666667 0.132151 Co
0.750000 0.833333 0.132151 Co
0.916667 0.000000 0.132151 Co
0.916667 0.166667 0.132151 Co
0.916667 0.333333 0.132151 Co
0.916667 0.500000 0.132151 Co
0.916667 0.666667 0.132151 Co
0.916667 0.833333 0.132151 Co
0.003813 0.000000 0.097616 O
0.003813 0.166667 0.097616 O
0.003813 0.333333 0.097616 O
0.003813 0.500000 0.097616 O
0.003813 0.666667 0.097616 O
0.003813 0.833333 0.097616 O
0.170480 0.000000 0.097616 O
0.170480 0.166667 0.097616 O
0.170480 0.333333 0.097616 O
0.170480 0.500000 0.097616 O
0.170480 0.666667 0.097616 O
0.170480 0.833333 0.097616 O
0.337146 0.000000 0.097616 O
0.337146 0.166667 0.097616 O
0.337146 0.333333 0.097616 O
0.337146 0.500000 0.097616 O
0.337146 0.666667 0.097616 O
0.337146 0.833333 0.097616 O
0.503813 0.000000 0.097616 O
0.503813 0.166667 0.097616 O
0.503813 0.333333 0.097616 O
0.503813 0.500000 0.097616 O
0.503813 0.666667 0.097616 O
0.503813 0.833333 0.097616 O
0.670480 0.000000 0.097616 O
0.670480 0.166667 0.097616 O
0.670480 0.333333 0.097616 O
0.670480 0.500000 0.097616 O
0.670480 0.666667 0.097616 O
0.670480 0.833333 0.097616 O
0.837146 0.000000 0.097616 O
0.837146 0.166667 0.097616 O
0.837146 0.333333 0.097616 O
0.837146 0.500000 0.097616 O
0.837146 0.666667 0.097616 O
0.837146 0.833333 0.097616 O
0.162854 0.000000 0.166685 O
0.162854 0.166667 0.166685 O
0.162854 0.333333 0.166685 O
0.162854 0.500000 0.166685 O
0.162854 0.666667 0.166685 O
0.162854 0.833333 0.166685 O
0.329520 0.000000 0.166685 O
0.329520 0.166667 0.166685 O
0.329520 0.333333 0.166685 O
0.329520 0.500000 0.166685 O
0.329520 0.666667 0.166685 O
0.329520 0.833333 0.166685 O
0.496187 0.000000 0.166685 O
0.496187 0.166667 0.166685 O
0.496187 0.333333 0.166685 O
0.496187 0.500000 0.166685 O
0.496187 0.666667 0.166685 O
0.496187 0.833333 0.166685 O
0.662854 0.000000 0.166685 O
0.662854 0.166667 0.166685 O
0.662854 0.333333 0.166685 O
0.662854 0.500000 0.166685 O
0.662854 0.666667 0.166685 O
0.662854 0.833333 0.166685 O
0.829520 0.000000 0.166685 O
0.829520 0.166667 0.166685 O
0.829520 0.333333 0.166685 O
0.829520 0.500000 0.166685 O
0.829520 0.666667 0.166685 O
0.829520 0.833333 0.166685 O
0.996187 0.000000 0.166685 O
0.996187 0.166667 0.166685 O
0.996187 0.333333 0.166685 O
0.996187 0.500000 0.166685 O
0.996187 0.666667 0.166685 O
0.996187 0.833333 0.166685 O
0.004182 0.000000 0.230511 O
0.004182 0.166667 0.230511 O
0.004182 0.333333 0.230511 O
0.004182 0.500000 0.230511 O
0.004182 0.666667 0.230511 O
0.004182 0.833333 0.230511 O
0.170848 0.000000 0.230511 O
0.170848 0.166667 0.230511 O
0.170848 0.333333 0.230511 O
0.170848 0.500000 0.230511 O
0.170848 0.666667 0.230511 O
0.170848 0.833333 0.230511 O
0.337515 0.000000 0.230511 O
0.337515 0.166667 0.230511 O
0.337515 0.333333 0.230511 O
0.337515 0.500000 0.230511 O
0.337515 0.666667 0.230511 O
0.337515 0.833333 0.230511 O
0.504182 0.000000 0.230511 O
0.504182 0.166667 0.230511 O
0.504182 0.333333 0.230511 O
0.504182 0.500000 0.230511 O
0.504182 0.666667 0.230511 O
0.504182 0.833333 0.230511 O
0.670848 0.000000 0.230511 O
0.670848 0.166667 0.230511 O
0.670848 0.333333 0.230511 O
0.670848 0.500000 0.230511 O
0.670848 0.666667 0.230511 O
0.670848 0.833333 0.230511 O
0.837515 0.000000 0.230511 O
0.837515 0.166667 0.230511 O
0.837515 0.333333 0.230511 O
0.837515 0.500000 0.230511 O
0.837515 0.666667 0.230511 O
0.837515 0.833333 0.230511 O
0.162485 0.000000 0.033790 O
0.162485 0.166667 0.033790 O
0.162485 0.333333 0.033790 O
0.162485 0.500000 0.033790 O
0.162485 0.666667 0.033790 O
0.162485 0.833333 0.033790 O
0.329152 0.000000 0.033790 O
0.329152 0.166667 0.033790 O
0.329152 0.333333 0.033790 O
0.329152 0.500000 0.033790 O
0.329152 0.666667 0.033790 O
0.329152 0.833333 0.033790 O
0.495818 0.000000 0.033790 O
0.495818 0.166667 0.033790 O
0.495818 0.333333 0.033790 O
0.495818 0.500000 0.033790 O
0.495818 0.666667 0.033790 O
0.495818 0.833333 0.033790 O
0.662485 0.000000 0.033790 O
0.662485 0.166667 0.033790 O
0.662485 0.333333 0.033790 O
0.662485 0.500000 0.033790 O
0.662485 0.666667 0.033790 O
0.662485 0.833333 0.033790 O
0.829152 0.000000 0.033790 O
0.829152 0.166667 0.033790 O
0.829152 0.333333 0.033790 O
0.829152 0.500000 0.033790 O
0.829152 0.666667 0.033790 O
0.829152 0.833333 0.033790 O
0.995818 0.000000 0.033790 O
0.995818 0.166667 0.033790 O
0.995818 0.333333 0.033790 O
0.995818 0.500000 0.033790 O
0.995818 0.666667 0.033790 O
0.995818 0.833333 0.033790 O
0.038039 0.083333 0.067367 O
0.038039 0.250000 0.067367 O
0.038039 0.416667 0.067367 O
0.038039 0.583333 0.067367 O
0.038039 0.750000 0.067367 O
0.038039 0.916667 0.067367 O
0.204705 0.083333 0.067367 O
0.204705 0.250000 0.067367 O
0.204705 0.416667 0.067367 O
0.204705 0.583333 0.067367 O
0.204705 0.750000 0.067367 O
0.204705 0.916667 0.067367 O
0.371372 0.083333 0.067367 O
0.371372 0.250000 0.067367 O
0.371372 0.416667 0.067367 O
0.371372 0.583333 0.067367 O
0.371372 0.750000 0.067367 O
0.371372 0.916667 0.067367 O
0.538039 0.083333 0.067367 O
0.538039 0.250000 0.067367 O
0.538039 0.416667 0.067367 O
0.538039 0.583333 0.067367 O
0.538039 0.750000 0.067367 O
0.538039 0.916667 0.067367 O
0.704705 0.083333 0.067367 O
0.704705 0.250000 0.067367 O
0.704705 0.416667 0.067367 O
0.704705 0.583333 0.067367 O
0.704705 0.750000 0.067367 O
0.704705 0.916667 0.067367 O
0.871372 0.083333 0.067367 O
0.871372 0.250000 0.067367 O
0.871372 0.416667 0.067367 O
0.871372 0.583333 0.067367 O
0.871372 0.750000 0.067367 O
0.871372 0.916667 0.067367 O
0.128628 0.083333 0.196934 O
0.128628 0.250000 0.196934 O
0.128628 0.416667 0.196934 O
0.128628 0.583333 0.196934 O
0.128628 0.750000 0.196934 O
0.128628 0.916667 0.196934 O
0.295295 0.083333 0.196934 O
0.295295 0.250000 0.196934 O
0.295295 0.416667 0.196934 O
0.295295 0.583333 0.196934 O
0.295295 0.750000 0.196934 O
0.295295 0.916667 0.196934 O
0.461961 0.083333 0.196934 O
0.461961 0.250000 0.196934 O
0.461961 0.416667 0.196934 O
0.461961 0.583333 0.196934 O
0.461961 0.750000 0.196934 O
0.461961 0.916667 0.196934 O
0.628628 0.083333 0.196934 O
0.628628 0.250000 0.196934 O
0.628628 0.416667 0.196934 O
0.628628 0.583333 0.196934 O
0.628628 0.750000 0.196934 O
0.628628 0.916667 0.196934 O
0.795295 0.083333 0.196934 O
0.795295 0.250000 0.196934 O
0.795295 0.416667 0.196934 O
0.795295 0.583333 0.196934 O
0.795295 0.750000 0.196934 O
0.795295 0.916667 0.196934 O
0.961961 0.083333 0.196934 O
0.961961 0.250000 0.196934 O
0.961961 0.416667 0.196934 O
0.961961 0.583333 0.196934 O
0.961961 0.750000 0.196934 O
0.961961 0.916667 0.196934 O
0.037546 0.083333 0.198053 O
0.037546 0.250000 0.198053 O
0.037546 0.416667 0.198053 O
0.037546 0.583333 0.198053 O
0.037546 0.750000 0.198053 O
0.037546 0.916667 0.198053 O
0.204213 0.083333 0.198053 O
0.204213 0.250000 0.198053 O
0.204213 0.416667 0.198053 O
0.204213 0.583333 0.198053 O
0.204213 0.750000 0.198053 O
0.204213 0.916667 0.198053 O
0.370880 0.083333 0.198053 O
0.370880 0.250000 0.198053 O
0.370880 0.416667 0.198053 O
0.370880 0.583333 0.198053 O
0.370880 0.750000 0.198053 O
0.370880 0.916667 0.198053 O
0.537546 0.083333 0.198053 O
0.537546 0.250000 0.198053 O
0.537546 0.416667 0.198053 O
0.537546 0.583333 0.198053 O
0.537546 0.750000 0.198053 O
0.537546 0.916667 0.198053 O
0.704213 0.083333 0.198053 O
0.704213 0.250000 0.198053 O
0.704213 0.416667 0.198053 O
0.704213 0.583333 0.198053 O
0.704213 0.750000 0.198053 O
0.704213 0.916667 0.198053 O
0.870880 0.083333 0.198053 O
0.870880 0.250000 0.198053 O
0.870880 0.416667 0.198053 O
0.870880 0.583333 0.198053 O
0.870880 0.750000 0.198053 O
0.870880 0.916667 0.198053 O
0.129120 0.083333 0.066248 O
0.129120 0.250000 0.066248 O
0.129120 0.416667 0.066248 O
0.129120 0.583333 0.066248 O
0.129120 0.750000 0.066248 O
0.129120 0.916667 0.066248 O
0.295787 0.083333 0.066248 O
0.295787 0.250000 0.066248 O
0.295787 0.416667 0.066248 O
0.295787 0.583333 0.066248 O
0.295787 0.750000 0.066248 O
0.295787 0.916667 0.066248 O
0.462454 0.083333 0.066248 O
0.462454 0.250000 0.066248 O
0.462454 0.416667 0.066248 O
0.462454 0.583333 0.066248 O
0.462454 0.750000 0.066248 O
0.462454 0.916667 0.066248 O
0.629120 0.083333 0.066248 O
0.629120 0.250000 0.066248 O
0.629120 0.416667 0.066248 O
0.629120 0.583333 0.066248 O
0.629120 0.750000 0.066248 O
0.629120 0.916667 0.066248 O
0.795787 0.083333 0.066248 O
0.795787 0.250000 0.066248 O
0.795787 0.416667 0.066248 O
0.795787 0.583333 0.066248 O
0.795787 0.750000 0.066248 O
0.795787 0.916667 0.066248 O
0.962454 0.083333 0.066248 O
0.962454 0.250000 0.066248 O
0.962454 0.416667 0.066248 O
0.962454 0.583333 0.066248 O
0.962454 0.750000 0.066248 O
0.962454 0.916667 0.066248 O
0.045268 0.083333 0.130705 O
0.045268 0.250000 0.130705 O
0.045268 0.416667 0.130705 O
0.045268 0.583333 0.130705 O
0.045268 0.750000 0.130705 O
0.045268 0.916667 0.130705 O
0.211935 0.083333 0.130705 O
0.211935 0.250000 0.130705 O
0.211935 0.416667 0.130705 O
0.211935 0.583333 0.130705 O
0.211935 0.750000 0.130705 O
0.211935 0.916667 0.130705 O
0.378602 0.083333 0.130705 O
0.378602 0.250000 0.130705 O
0.378602 0.416667 0.130705 O
0.378602 0.583333 0.130705 O
0.378602 0.750000 0.130705 O
0.378602 0.916667 0.130705 O
0.545268 0.083333 0.130705 O
0.545268 0.250000 0.130705 O
0.545268 0.416667 0.130705 O
0.545268 0.583333 0.130705 O
0.545268 0.750000 0.130705 O
0.545268 0.916667 0.130705 O
0.711935 0.083333 0.130705 O
0.711935 0.250000 0.130705 O
0.711935 0.416667 0.130705 O
0.711935 0.583333 0.130705 O
0.711935 0.750000 0.130705 O
0.711935 0.916667 0.130705 O
0.878602 0.083333 0.130705 O
0.878602 0.250000 0.130705 O
0.878602 0.416667 0.130705 O
0.878602 0.583333 0.130705 O
0.878602 0.750000 0.130705 O
0.878602 0.916667 0.130705 O
0.121398 0.083333 0.133596 O
0.121398 0.250000 0.133596 O
0.121398 0.416667 0.133596 O
0.121398 0.583333 0.133596 O
0.121398 0.750000 0.133596 O
0.121398 0.916667 0.133596 O
0.288065 0.083333 0.133596 O
0.288065 0.250000 0.133596 O
0.288065 0.416667 0.133596 O
0.288065 0.583333 0.133596 O
0.288065 0.750000 0.133596 O
0.288065 0.916667 0.133596 O
0.454732 0.083333 0.133596 O
0.454732 0.250000 0.133596 O
0.454732 0.416667 0.133596 O
0.454732 0.583333 0.133596 O
0.454732 0.750000 0.133596 O
0.454732 0.916667 0.133596 O
0.621398 0.083333 0.133596 O
0.621398 0.250000 0.133596 O
0.621398 0.416667 0.133596 O
0.621398 0.583333 0.133596 O
0.621398 0.750000 0.133596 O
0.621398 0.916667 0.133596 O
0.788065 0.083333 0.133596 O
0.788065 0.250000 0.133596 O
0.788065 0.416667 0.133596 O
0.788065 0.583333 0.133596 O
0.788065 0.750000 0.133596 O
0.788065 0.916667 0.133596 O
0.954732 0.083333 0.133596 O
0.954732 0.250000 0.133596 O
0.954732 0.416667 0.133596 O
0.954732 0.583333 0.133596 O
0.954732 0.750000 0.133596 O
0.954732 0.916667 0.133596 O
0.079600 0.000000 0.100599 O
0.079600 0.166667 0.100599 O
0.079600 0.333333 0.100599 O
0.079600 0.500000 0.100599 O
0.079600 0.666667 0.100599 O
0.079600 0.833333 0.100599 O
0.246267 0.000000 0.100599 O
0.246267 0.166667 0.100599 O
0.246267 0.333333 0.100599 O
0.246267 0.500000 0.100599 O
0.246267 0.666667 0.100599 O
0.246267 0.833333 0.100599 O
0.412934 0.000000 0.100599 O
0.412934 0.166667 0.100599 O
0.412934 0.333333 0.100599 O
0.412934 0.500000 0.100599 O
0.412934 0.666667 0.100599 O
0.412934 0.833333 0.100599 O
0.579600 0.000000 0.100599 O
0.579600 0.166667 0.100599 O
0.579600 0.333333 0.100599 O
0.579600 0.500000 0.100599 O
0.579600 0.666667 0.100599 O
0.579600 0.833333 0.100599 O
0.746267 0.000000 0.100599 O
0.746267 0.166667 0.100599 O
0.746267 0.333333 0.100599 O
0.746267 0.500000 0.100599 O
0.746267 0.666667 0.100599 O
0.746267 0.833333 0.100599 O
0.912934 0.000000 0.100599 O
0.912934 0.166667 0.100599 O
0.912934 0.333333 0.100599 O
0.912934 0.500000 0.100599 O
0.912934 0.666667 0.100599 O
0.912934 0.833333 0.100599 O
0.087066 0.000000 0.163702 O
0.087066 0.166667 0.163702 O
0.087066 0.333333 0.163702 O
0.087066 0.500000 0.163702 O
0.087066 0.666667 0.163702 O
0.087066 0.833333 0.163702 O
0.253733 0.000000 0.163702 O
0.253733 0.166667 0.163702 O
0.253733 0.333333 0.163702 O
0.253733 0.500000 0.163702 O
0.253733 0.666667 0.163702 O
0.253733 0.833333 0.163702 O
0.420400 0.000000 0.163702 O
0.420400 0.166667 0.163702 O
0.420400 0.333333 0.163702 O
0.420400 0.500000 0.163702 O
0.420400 0.666667 0.163702 O
0.420400 0.833333 0.163702 O
0.587066 0.000000 0.163702 O
0.587066 0.166667 0.163702 O
0.587066 0.333333 0.163702 O
0.587066 0.500000 0.163702 O
0.587066 0.666667 0.163702 O
0.587066 0.833333 0.163702 O
0.753733 0.000000 0.163702 O
0.753733 0.166667 0.163702 O
0.753733 0.333333 0.163702 O
0.753733 0.500000 0.163702 O
0.753733 0.666667 0.163702 O
0.753733 0.833333 0.163702 O
0.920400 0.000000 0.163702 O
0.920400 0.166667 0.163702 O
0.920400 0.333333 0.163702 O
0.920400 0.500000 0.163702 O
0.920400 0.666667 0.163702 O
0.920400 0.833333 0.163702 O
0.079214 0.000000 0.233297 O
0.079214 0.166667 0.233297 O
0.079214 0.333333 0.233297 O
0.079214 0.500000 0.233297 O
0.079214 0.666667 0.233297 O
0.079214 0.833333 0.233297 O
0.245880 0.000000 0.233297 O
0.245880 0.166667 0.233297 O
0.245880 0.333333 0.233297 O
0.245880 0.500000 0.233297 O
0.245880 0.666667 0.233297 O
0.245880 0.833333 0.233297 O
0.412547 0.000000 0.233297 O
0.412547 0.166667 0.233297 O
0.412547 0.333333 0.233297 O
0.412547 0.500000 0.233297 O
0.412547 0.666667 0.233297 O
0.412547 0.833333 0.233297 O
0.579214 0.000000 0.233297 O
0.579214 0.166667 0.233297 O
0.579214 0.333333 0.233297 O
0.579214 0.500000 0.233297 O
0.579214 0.666667 0.233297 O
0.579214 0.833333 0.233297 O
0.745880 0.000000 0.233297 O
0.745880 0.166667 0.233297 O
0.745880 0.333333 0.233297 O
0.745880 0.500000 0.233297 O
0.745880 0.666667 0.233297 O
0.745880 0.833333 0.233297 O
0.912547 0.000000 0.233297 O
0.912547 0.166667 0.233297 O
0.912547 0.333333 0.233297 O
0.912547 0.500000 0.233297 O
0.912547 0.666667 0.233297 O
0.912547 0.833333 0.233297 O
0.087453 0.000000 0.031004 O
0.087453 0.166667 0.031004 O
0.087453 0.333333 0.031004 O
0.087453 0.500000 0.031004 O
0.087453 0.666667 0.031004 O
0.087453 0.833333 0.031004 O
0.254120 0.000000 0.031004 O
0.254120 0.166667 0.031004 O
0.254120 0.333333 0.031004 O
0.254120 0.500000 0.031004 O
0.254120 0.666667 0.031004 O
0.254120 0.833333 0.031004 O
0.420786 0.000000 0.031004 O
0.420786 0.166667 0.031004 O
0.420786 0.333333 0.031004 O
0.420786 0.500000 0.031004 O
0.420786 0.666667 0.031004 O
0.420786 0.833333 0.031004 O
0.587453 0.000000 0.031004 O
0.587453 0.166667 0.031004 O
0.587453 0.333333 0.031004 O
0.587453 0.500000 0.031004 O
0.587453 0.666667 0.031004 O
0.587453 0.833333 0.031004 O
0.754120 0.000000 0.031004 O
0.754120 0.166667 0.031004 O
0.754120 0.333333 0.031004 O
0.754120 0.500000 0.031004 O
0.754120 0.666667 0.031004 O
0.754120 0.833333 0.031004 O
0.920786 0.000000 0.031004 O
0.920786 0.166667 0.031004 O
0.920786 0.333333 0.031004 O
0.920786 0.500000 0.031004 O
0.920786 0.666667 0.031004 O
0.920786 0.833333 0.031004 O
