Li5 Co5 O10
1.0
5.744751 0.000000 -0.084243
-0.000000 2.842899 0.000000
0.000000 0.000000 40.415828
Li Co O
5 5 10
direct
0.000000 0.000000 0.400000 Li
0.000000 0.000000 0.600000 Li
0.250000 0.500000 0.450000 Li
0.750000 0.500000 0.550000 Li
0.500000 0.000000 0.500000 Li
0.250000 0.500000 0.550000 Co
0.750000 0.500000 0.450000 Co
0.500000 0.000000 0.400000 Co
0.500000 0.000000 0.600000 Co
0.000000 0.000000 0.500000 Co
0.020826 0.000000 0.547917 O
0.979174 0.000000 0.452083 O
0.229174 0.500000 0.502083 O
0.770826 0.500000 0.497917 O
0.270826 0.500000 0.397917 O
0.729174 0.500000 0.602083 O
0.270826 0.500000 0.597917 O
0.729174 0.500000 0.402083 O
0.479174 0.000000 0.552083 O
0.520826 0.000000 0.447917 O
