Li5 Co5 O10
1.0
5.699226 0.000000 -0.726693
-0.000000 2.842899 0.000000
0.000000 0.000000 20.369333
Li Co O
5 5 10
direct
0.200000 0.000000 0.400000 Li
0.800000 0.000000 0.600000 Li
0.400000 0.500000 0.300000 Li
0.600000 0.500000 0.700000 Li
0.000000 0.500000 0.500000 Li
0.100000 0.500000 0.700000 Co
0.900000 0.500000 0.300000 Co
0.300000 0.000000 0.600000 Co
0.700000 0.000000 0.400000 Co
0.500000 0.500000 0.500000 Co
0.072909 0.500000 0.604165 O
0.927091 0.500000 0.395835 O
0.127091 0.000000 0.295835 O
0.872909 0.000000 0.704165 O
0.272909 0.000000 0.504165 O
0.727091 0.000000 0.495835 O
0.327091 0.000000 0.695835 O
0.672909 0.000000 0.304165 O
0.472909 0.500000 0.404165 O
0.527091 0.500000 0.595835 O
