Li5 Co5 O10
1.0
5.744751 0.000000 -0.084243
-0.000000 2.842899 0.000000
0.000000 0.000000 48.498994
Li Co O
5 5 10
direct
0.250000 0.500000 0.541667 Li
0.750000 0.500000 0.458333 Li
0.500000 0.000000 0.416667 Li
0.500000 0.000000 0.583333 Li
0.000000 0.000000 0.500000 Li
0.000000 0.000000 0.416667 Co
0.000000 0.000000 0.583333 Co
0.250000 0.500000 0.458333 Co
0.750000 0.500000 0.541667 Co
0.500000 0.000000 0.500000 Co
0.020826 0.000000 0.456598 O
0.979174 0.000000 0.543402 O
0.229174 0.500000 0.585069 O
0.770826 0.500000 0.414931 O
0.229174 0.500000 0.418402 O
0.770826 0.500000 0.581598 O
0.270826 0.500000 0.498264 O
0.729174 0.500000 0.501736 O
0.479174 0.000000 0.460069 O
0.520826 0.000000 0.539931 O
