Li5 Co5 O10
1.0
5.733521 0.000000 -0.368779
-0.000000 2.842899 0.000000
0.000000 0.000000 36.445490
Li Co O
5 5 10
direct
0.222222 0.000000 0.444444 Li
0.777778 0.000000 0.555556 Li
0.444444 0.500000 0.388889 Li
0.555556 0.500000 0.611111 Li
0.000000 0.500000 0.500000 Li
0.055556 0.500000 0.611111 Co
0.944444 0.500000 0.388889 Co
0.277778 0.000000 0.555556 Co
0.722222 0.000000 0.444444 Co
0.500000 0.500000 0.500000 Co
0.049761 0.500000 0.557870 O
0.950239 0.500000 0.442130 O
0.172461 0.000000 0.386575 O
0.827539 0.000000 0.613425 O
0.271983 0.000000 0.502314 O
0.728017 0.000000 0.497686 O
0.283573 0.000000 0.608797 O
0.716427 0.000000 0.391203 O
0.494205 0.500000 0.446758 O
0.505795 0.500000 0.553242 O
