Li5 Co5 O10
1.0
5.738212 0.000000 -0.286676
-0.000000 2.842899 0.000000
0.000000 0.000000 44.508072
Li Co O
5 5 10
direct
0.045455 0.500000 0.590909 Li
0.954545 0.500000 0.409091 Li
0.272727 0.000000 0.545455 Li
0.727273 0.000000 0.454545 Li
0.500000 0.500000 0.500000 Li
0.227273 0.000000 0.454545 Co
0.772727 0.000000 0.545455 Co
0.454545 0.500000 0.409091 Co
0.545455 0.500000 0.590909 Co
0.000000 0.500000 0.500000 Co
0.000955 0.500000 0.543561 O
0.999045 0.500000 0.456439 O
0.226318 0.000000 0.410984 O
0.773682 0.000000 0.589016 O
0.228227 0.000000 0.498107 O
0.771773 0.000000 0.501893 O
0.317227 0.000000 0.592802 O
0.682773 0.000000 0.407198 O
0.455500 0.500000 0.452652 O
0.544500 0.500000 0.547348 O
