Li48 Co48 O96
1.0
11.371596 0.000000 0.000000
-5.685796 9.848092 0.000000
0.000000 0.000000 14.145615
Li Co O
48 48 96
Selective dynamics
direct
0.000000 0.000000 0.000000 T T T Li
0.000000 0.250000 0.000000 T T T Li
0.000000 0.500000 0.000000 T T T Li
1.000000 0.750000 0.000000 T T T Li
0.250000 0.000000 0.000000 T T T Li
0.250000 0.250000 0.000000 T T T Li
0.250000 0.500000 0.000000 T T T Li
0.250000 0.750000 0.000000 T T T Li
0.500000 0.000000 0.000000 T T T Li
0.500000 0.250000 0.000000 T T T Li
0.500000 0.500000 0.000000 T T T Li
0.500000 0.750000 0.000000 T T T Li
0.750000 0.000000 0.000000 T T T Li
0.750000 0.250000 0.000000 T T T Li
0.750000 0.500000 0.000000 T T T Li
0.750000 0.750000 0.000000 T T T Li
0.166667 0.083333 0.333333 T T T Li
0.166667 0.333333 0.333333 T T T Li
0.166667 0.583333 0.333333 T T T Li
0.166667 0.833333 0.333333 T T T Li
0.416667 0.083333 0.333333 T T T Li
0.416667 0.333333 0.333333 T T T Li
0.416667 0.583333 0.333333 T T T Li
0.416667 0.833333 0.333333 T T T Li
0.666667 0.083333 0.333333 T T T Li
0.666667 0.333333 0.333333 T T T Li
0.666667 0.583333 0.333333 T T T Li
0.666667 0.833333 0.333333 T T T Li
0.916667 0.083333 0.333333 T T T Li
0.916667 0.333333 0.333333 T T T Li
0.916667 0.583333 0.333333 T T T Li
0.916667 0.833333 0.333333 T T T Li
0.083333 0.166667 0.666667 T T T Li
0.083333 0.416667 0.666667 T T T Li
0.083333 0.666667 0.666667 T T T Li
0.083333 0.916667 0.666667 T T T Li
0.333333 0.166667 0.666667 T T T Li
0.333333 0.416667 0.666667 T T T Li
0.333333 0.666667 0.666667 T T T Li
0.333333 0.916667 0.666667 T T T Li
0.583333 0.166667 0.666667 T T T Li
0.583333 0.416667 0.666667 T T T Li
0.583333 0.666667 0.666667 T T T Li
0.583333 0.916667 0.666667 T T T Li
0.833333 0.166667 0.666667 T T T Li
0.833333 0.416667 0.666667 T T T Li
0.833333 0.666667 0.666667 T T T Li
0.833333 0.916667 0.666667 T T T Li
0.000000 0.000000 0.500000 T T T Co
0.000000 0.250000 0.500000 T T T Co
0.000000 0.500000 0.500000 T T T Co
1.000000 0.750000 0.500000 T T T Co
0.250000 0.000000 0.500000 T T T Co
0.250000 0.250000 0.500000 T T T Co
0.250000 0.500000 0.500000 T T T Co
0.250000 0.750000 0.500000 T T T Co
0.500000 0.000000 0.500000 T T T Co
0.500000 0.250000 0.500000 T T T Co
0.500000 0.500000 0.500000 T T T Co
0.500000 0.750000 0.500000 T T T Co
0.750000 0.000000 0.500000 T T T Co
0.750000 0.250000 0.500000 T T T Co
0.750000 0.500000 0.500000 T T T Co
0.750000 0.750000 0.500000 T T T Co
0.166667 0.083333 0.833333 T T T Co
0.166667 0.333333 0.833333 T T T Co
0.166667 0.583333 0.833333 T T T Co
0.166667 0.833333 0.833333 T T T Co
0.416667 0.083333 0.833333 T T T Co
0.416667 0.333333 0.833333 T T T Co
0.416667 0.583333 0.833333 T T T Co
0.416667 0.833333 0.833333 T T T Co
0.666667 0.083333 0.833333 T T T Co
0.666667 0.333333 0.833333 T T T Co
0.666667 0.583333 0.833333 T T T Co
0.666667 0.833333 0.833333 T T T Co
0.916667 0.083333 0.833333 T T T Co
0.916667 0.333333 0.833333 T T T Co
0.916667 0.583333 0.833333 T T T Co
0.916667 0.833333 0.833333 T T T Co
0.083333 0.166667 0.166667 T T T Co
0.083333 0.416667 0.166667 T T T Co
0.083333 0.666667 0.166667 T T T Co
0.083333 0.916667 0.166667 T T T Co
0.333333 0.166667 0.166667 T T T Co
0.333333 0.416667 0.166667 T T T Co
0.333333 0.666667 0.166667 T T T Co
0.333333 0.916667 0.166667 T T T Co
0.583333 0.166667 0.166667 T T T Co
0.583333 0.416667 0.166667 T T T Co
0.583333 0.666667 0.166667 T T T Co
0.583333 0.916667 0.166667 T T T Co
0.833333 0.166667 0.166667 T T T Co
0.833333 0.416667 0.166667 T T T Co
0.833333 0.666667 0.166667 T T T Co
0.833333 0.916667 0.166667 T T T Co
0.000000 0.000000 0.239587 T T T O
0.000000 0.250000 0.239587 T T T O
0.000000 0.500000 0.239587 T T T O
1.000000 0.750000 0.239587 T T T O
0.250000 0.000000 0.239587 T T T O
0.250000 0.250000 0.239587 T T T O
0.250000 0.500000 0.239587 T T T O
0.250000 0.750000 0.239587 T T T O
0.500000 0.000000 0.239587 T T T O
0.500000 0.250000 0.239587 T T T O
0.500000 0.500000 0.239587 T T T O
0.500000 0.750000 0.239587 T T T O
0.750000 0.000000 0.239587 T T T O
0.750000 0.250000 0.239587 T T T O
0.750000 0.500000 0.239587 T T T O
0.750000 0.750000 0.239587 T T T O
0.000000 0.000000 0.760413 T T T O
0.000000 0.250000 0.760413 T T T O
0.000000 0.500000 0.760413 T T T O
1.000000 0.750000 0.760413 T T T O
0.250000 0.000000 0.760413 T T T O
0.250000 0.250000 0.760413 T T T O
0.250000 0.500000 0.760413 T T T O
0.250000 0.750000 0.760413 T T T O
0.500000 0.000000 0.760413 T T T O
0.500000 0.250000 0.760413 T T T O
0.500000 0.500000 0.760413 T T T O
0.500000 0.750000 0.760413 T T T O
0.750000 0.000000 0.760413 T T T O
0.750000 0.250000 0.760413 T T T O
0.750000 0.500000 0.760413 T T T O
0.750000 0.750000 0.760413 T T T O
0.166667 0.083333 0.572920 T T T O
0.166667 0.333333 0.572920 T T T O
0.166667 0.583333 0.572920 T T T O
0.166667 0.833333 0.572920 T T T O
0.416667 0.083333 0.572920 T T T O
0.416667 0.333333 0.572920 T T T O
0.416667 0.583333 0.572920 T T T O
0.416667 0.833333 0.572920 T T T O
0.666667 0.083333 0.572920 T T T O
0.666667 0.333333 0.572920 T T T O
0.666667 0.583333 0.572920 T T T O
0.666667 0.833333 0.572920 T T T O
0.916667 0.083333 0.572920 T T T O
0.916667 0.333333 0.572920 T T T O
0.916667 0.583333 0.572920 T T T O
0.916667 0.833333 0.572920 T T T O
0.166667 0.083333 0.093746 T T T O
0.166667 0.333333 0.093746 T T T O
0.166667 0.583333 0.093746 T T T O
0.166667 0.833333 0.093746 T T T O
0.416667 0.083333 0.093746 T T T O
0.416667 0.333333 0.093746 T T T O
0.416667 0.583333 0.093746 T T T O
0.416667 0.833333 0.093746 T T T O
0.666667 0.083333 0.093746 T T T O
0.666667 0.333333 0.093746 T T T O
0.666667 0.583333 0.093746 T T T O
0.666667 0.833333 0.093746 T T T O
0.916667 0.083333 0.093746 T T T O
0.916667 0.333333 0.093746 T T T O
0.916667 0.583333 0.093746 T T T O
0.916667 0.833333 0.093746 T T T O
0.083333 0.166667 0.906254 T T T O
0.083333 0.416667 0.906254 T T T O
0.083333 0.666667 0.906254 T T T O
0.083333 0.916667 0.906254 T T T O
0.333333 0.166667 0.906254 T T T O
0.333333 0.416667 0.906254 T T T O
0.333333 0.666667 0.906254 T T T O
0.333333 0.916667 0.906254 T T T O
0.583333 0.166667 0.906254 T T T O
0.583333 0.416667 0.906254 T T T O
0.583333 0.666667 0.906254 T T T O
0.583333 0.916667 0.906254 T T T O
0.833333 0.166667 0.906254 T T T O
0.833333 0.416667 0.906254 T T T O
0.833333 0.666667 0.906254 T T T O
0.833333 0.916667 0.906254 T T T O
0.083333 0.166667 0.427080 T T T O
0.083333 0.416667 0.427080 T T T O
0.083333 0.666667 0.427080 T T T O
0.083333 0.916667 0.427080 T T T O
0.333333 0.166667 0.427080 T T T O
0.333333 0.416667 0.427080 T T T O
0.333333 0.666667 0.427080 T T T O
0.333333 0.916667 0.427080 T T T O
0.583333 0.166667 0.427080 T T T O
0.583333 0.416667 0.427080 T T T O
0.583333 0.666667 0.427080 T T T O
0.583333 0.916667 0.427080 T T T O
0.833333 0.166667 0.427080 T T T O
0.833333 0.416667 0.427080 T T T O
0.833333 0.666667 0.427080 T T T O
0.833333 0.916667 0.427080 T T T O
