Li5 Co5 O10
1.0
5.744751 0.000000 -0.084243
-0.000000 2.842899 0.000000
0.000000 0.000000 32.332662
Li Co O
5 5 10
direct
0.250000 0.500000 0.562500 Li
0.750000 0.500000 0.437500 Li
0.500000 0.000000 0.375000 Li
0.500000 0.000000 0.625000 Li
0.000000 0.000000 0.500000 Li
0.000000 0.000000 0.375000 Co
0.000000 0.000000 0.625000 Co
0.250000 0.500000 0.437500 Co
0.750000 0.500000 0.562500 Co
0.500000 0.000000 0.500000 Co
0.020826 0.000000 0.434897 O
0.979174 0.000000 0.565103 O
0.229174 0.500000 0.627603 O
0.770826 0.500000 0.372397 O
0.229174 0.500000 0.377603 O
0.770826 0.500000 0.622397 O
0.270826 0.500000 0.497397 O
0.729174 0.500000 0.502603 O
0.479174 0.000000 0.440103 O
0.520826 0.000000 0.559897 O
