Li5 Co5 O10
1.0
5.723804 0.000000 -0.497323
-0.000000 2.842899 0.000000
0.000000 0.000000 28.394615
Li Co O
5 5 10
direct
0.071429 0.500000 0.642857 Li
0.928571 0.500000 0.357143 Li
0.285714 0.000000 0.571429 Li
0.714286 0.000000 0.428571 Li
0.500000 0.500000 0.500000 Li
0.214286 0.000000 0.428571 Co
0.785714 0.000000 0.571429 Co
0.428571 0.500000 0.357143 Co
0.571429 0.500000 0.642857 Co
0.000000 0.500000 0.500000 Co
0.013401 0.500000 0.568453 O
0.986599 0.500000 0.431547 O
0.200885 0.000000 0.360118 O
0.799115 0.000000 0.639882 O
0.227686 0.000000 0.497025 O
0.772314 0.000000 0.502975 O
0.343742 0.000000 0.645832 O
0.656258 0.000000 0.354168 O
0.441972 0.500000 0.425596 O
0.558028 0.500000 0.574404 O
