Li12 Co12 O24
1.0
5.685798 0.000000 0.000000
-2.842898 4.924046 0.000000
0.000000 0.000000 14.145615
Li Co O
12 12 24
Selective dynamics
direct
0.000000 0.000000 0.000000 T T T Li
0.000000 0.500000 0.000000 T T T Li
0.500000 0.000000 0.000000 T T T Li
0.500000 0.500000 0.000000 T T T Li
0.333333 0.166666 0.333333 T T T Li
0.333334 0.666666 0.333333 T T T Li
0.833333 0.166666 0.333333 T T T Li
0.833333 0.666666 0.333333 T T T Li
0.166666 0.333334 0.666667 T T T Li
0.166666 0.833333 0.666667 T T T Li
0.666666 0.333334 0.666667 T T T Li
0.666666 0.833333 0.666667 T T T Li
0.000000 0.000000 0.500000 T T T Co
0.000000 0.500000 0.500000 T T T Co
0.500000 0.000000 0.500000 T T T Co
0.500000 0.500000 0.500000 T T T Co
0.333333 0.166666 0.833333 T T T Co
0.333334 0.666666 0.833333 T T T Co
0.833333 0.166666 0.833333 T T T Co
0.833333 0.666666 0.833333 T T T Co
0.166666 0.333334 0.166667 T T T Co
0.166666 0.833333 0.166667 T T T Co
0.666666 0.333334 0.166667 T T T Co
0.666666 0.833333 0.166667 T T T Co
0.000000 0.000000 0.239587 T T T O
0.000000 0.500000 0.239587 T T T O
0.500000 0.000000 0.239587 T T T O
0.500000 0.500000 0.239587 T T T O
0.000000 0.000000 0.760413 T T T O
0.000000 0.500000 0.760413 T T T O
0.500000 0.000000 0.760413 T T T O
0.500000 0.500000 0.760413 T T T O
0.333333 0.166666 0.572920 T T T O
0.333334 0.666666 0.572920 T T T O
0.833333 0.166666 0.572920 T T T O
0.833333 0.666666 0.572920 T T T O
0.333333 0.166666 0.093746 T T T O
0.333334 0.666666 0.093746 T T T O
0.833333 0.166666 0.093746 T T T O
0.833333 0.666666 0.093746 T T T O
0.166666 0.333334 0.906254 T T T O
0.166666 0.833333 0.906254 T T T O
0.666666 0.333334 0.906254 T T T O
0.666666 0.833333 0.906254 T T T O
0.166666 0.333334 0.427080 T T T O
0.166666 0.833333 0.427080 T T T O
0.666666 0.333334 0.427080 T T T O
0.666666 0.833333 0.427080 T T T O
